# Objective value = 54
WA1n 0
WA1p 0
WA2n 1
WA2p 0
WB1n 0
WB1p 0
WB2n 0
WB2p 1
WC1n 1
WC1p 0
WD1n 0
WD1p 1
WE1n 2
WE1p 0
WF1n 0
WF1p 2
WG1n 0
WG1p 4
WH1n 7
WH1p 0
WH2n 1
WH2p 0
WI1n 11
WI1p 0
WI2n 1
WI2p 0
WJ1n 11
WJ1p 0
WJ2n 1
WJ2p 0
WT1n 3
WT1p 0
WT2n 1
WT2p 0
5 7
a 0
b 0
c 0
d 1
e 0
f 1
g 0
h 1
i 1
j 0
k 0
l 0
m 0
n 0
o 0
p 0
q 0
